11
0 34 66 77 20 83 11 15 38 38 20 
15 0 43 53 42 46 18 12 22 59 56 
90 82 0 57 32 19 96 77 63 2 55 
55 87 11 0 16 97 12 68 66 32 7 
19 69 100 63 0 10 87 22 40 50 52 
28 9 61 28 91 0 41 67 70 7 42 
18 83 56 98 89 83 0 13 17 14 32 
6 2 56 69 10 86 83 0 8 64 42 
77 27 20 57 33 91 42 93 0 70 91 
23 44 2 68 65 34 63 5 36 0 57 
82 48 44 65 54 21 77 41 76 18 0 
